Version identifier: 20.1.0.0 | 2020-11-10 | 9bedb6d68
Tried aggregator 2 times.
MIP Presolve eliminated 960 rows and 498 columns.
MIP Presolve modified 2364 coefficients.
Aggregator did 100 substitutions.
Reduced MIP has 1349 rows, 1067 columns, and 4413 nonzeros.
Reduced MIP has 216 binaries, 851 generals, 0 SOSs, and 0 indicators.
Presolve time = 0.01 sec. (5.54 ticks)
Found incumbent of value 1381.000000 after 0.03 sec. (11.06 ticks)
Probing fixed 30 vars, tightened 335 bounds.
Probing time = 0.00 sec. (0.88 ticks)
Tried aggregator 2 times.
MIP Presolve eliminated 579 rows and 76 columns.
MIP Presolve modified 147 coefficients.
Aggregator did 34 substitutions.
Reduced MIP has 736 rows, 957 columns, and 2394 nonzeros.
Reduced MIP has 352 binaries, 605 generals, 0 SOSs, and 0 indicators.
Presolve time = 0.01 sec. (3.24 ticks)
Probing time = 0.00 sec. (0.24 ticks)
Tried aggregator 1 time.
Detecting symmetries...
MIP Presolve modified 266 coefficients.
Reduced MIP has 736 rows, 957 columns, and 2394 nonzeros.
Reduced MIP has 352 binaries, 605 generals, 0 SOSs, and 0 indicators.
Presolve time = 0.00 sec. (1.86 ticks)
Probing time = 0.00 sec. (0.23 ticks)
Clique table members: 65.
MIP emphasis: balance optimality and feasibility.
MIP search method: dynamic search.
Parallel mode: deterministic, using up to 24 threads.
Root relaxation solution time = 0.00 sec. (1.64 ticks)

        Nodes                                         Cuts/
   Node  Left     Objective  IInf  Best Integer    Best Bound    ItCnt     Gap

*     0+    0                         1381.0000        0.0000           100.00%
      0     0        0.0000    44     1381.0000        0.0000      193  100.00%
*     0+    0                           14.0000        0.0000           100.00%
*     0+    0                           11.0000        0.0000           100.00%
      0     0        0.1429    89       11.0000     Cuts: 129      373   98.70%
      0     0        1.0000   100       11.0000     Cuts: 100      471   90.91%
      0     0        1.0000    74       11.0000      Cuts: 48      509   90.91%
      0     0        1.0000   101       11.0000      Cuts: 51      544   90.91%
      0     0        1.0000   121       11.0000      Cuts: 47      625   90.91%
*     0+    0                           10.0000        1.0000            90.00%
*     0+    0                            7.0000        1.0000            85.71%
      0     0        cutoff              7.0000        7.0000      625    0.00%
Elapsed time = 0.57 sec. (88.41 ticks, tree = 0.01 MB, solutions = 5)

Cover cuts applied:  1
Implied bound cuts applied:  46
Mixed integer rounding cuts applied:  5
Zero-half cuts applied:  45
Lift and project cuts applied:  11
Gomory fractional cuts applied:  19

Root node processing (before b&c):
  Real time             =    0.57 sec. (88.51 ticks)
Parallel b&c, 24 threads:
  Real time             =    0.00 sec. (0.00 ticks)
  Sync time (average)   =    0.00 sec.
  Wait time (average)   =    0.00 sec.
                          ------------
Total (root+branch&cut) =    0.57 sec. (88.51 ticks)

Solution status = Optimal
Solution LB = 7
Solution UB = 7
Runtime = 0.573682 seconds
	Command being timed: "/home/min/git_repos/CS598MEBProject/CNT-ILP/build/cnt -s 2 ./output/k8_n15/simC_c1_k8_n15_u1_s3_del04.input-left.cnp"
	User time (seconds): 8.84
	System time (seconds): 0.07
	Percent of CPU this job got: 1454%
	Elapsed (wall clock) time (h:mm:ss or m:ss): 0:00.61
	Average shared text size (kbytes): 0
	Average unshared data size (kbytes): 0
	Average stack size (kbytes): 0
	Average total size (kbytes): 0
	Maximum resident set size (kbytes): 77932
	Average resident set size (kbytes): 0
	Major (requiring I/O) page faults: 0
	Minor (reclaiming a frame) page faults: 17222
	Voluntary context switches: 4436
	Involuntary context switches: 1402
	Swaps: 0
	File system inputs: 0
	File system outputs: 16
	Socket messages sent: 0
	Socket messages received: 0
	Signals delivered: 0
	Page size (bytes): 4096
	Exit status: 0
